(set-info :source |printed by MathSAT|)
(declare-fun call_moesi.ite7 () Int)
(declare-fun param_etat_mo1 () Bool)
(declare-fun call_moesi.ite7.next () Int)
(declare-fun flby () Bool)
(declare-fun call_moesi.ite12.next () Int)
(declare-fun call_moesi.ite23.next () Int)
(declare-fun call_moesi.ite () Int)
(declare-fun call_moesi.ite34.next () Int)
(declare-fun call_moesi.ite16 () Int)
(declare-fun call_moesi.erreur_mo () Bool)
(declare-fun param_etat_mo3.next () Bool)
(declare-fun call_moesi.shared_mo () Int)
(declare-fun call_moesi.ite16.next () Int)
(declare-fun call_moesi.ite26.next () Int)
(declare-fun call_moesi.owned_mo.next () Int)
(declare-fun call_moesi.ite10 () Int)
(declare-fun call_moesi.ite24 () Int)
(declare-fun call_moesi.ite3 () Int)
(declare-fun param_etat_mo3 () Bool)
(declare-fun call_moesi.erreur_mo.next () Bool)
(declare-fun call_moesi.ite30 () Int)
(declare-fun call_moesi.ite21.next () Int)
(declare-fun invalid_mo.next () Int)
(declare-fun call_moesi.ite15.next () Int)
(declare-fun exclusive_mo () Int)
(declare-fun call_moesi.ite18 () Int)
(declare-fun call_moesi.ite20.next () Int)
(declare-fun call_moesi.ite4.next () Int)
(declare-fun modified_mo.next () Int)
(declare-fun call_moesi.ite28 () Int)
(declare-fun call_moesi.ite2 () Int)
(declare-fun call_moesi.ite17 () Int)
(declare-fun call_moesi.flby5 () Int)
(declare-fun env.next () Bool)
(declare-fun call_moesi.flby3 () Int)
(declare-fun invalid_mo () Int)
(declare-fun call_moesi.ite15 () Int)
(declare-fun call_moesi.ite8.next () Int)
(declare-fun call_moesi.ite11 () Int)
(declare-fun call_moesi.ite28.next () Int)
(declare-fun owned_mo.next () Int)
(declare-fun modified_mo () Int)
(declare-fun call_Sofar.flby.next () Bool)
(declare-fun call_Sofar.Sofar.next () Bool)
(declare-fun call_moesi.modified_mo.next () Int)
(declare-fun call_moesi.ite25.next () Int)
(declare-fun call_moesi.ite13 () Int)
(declare-fun call_moesi.ite33 () Int)
(declare-fun call_moesi.exclusive_mo () Int)
(declare-fun flby.next () Bool)
(declare-fun call_moesi.ite30.next () Int)
(declare-fun exclusive_mo.next () Int)
(declare-fun call_moesi.exclusive_mo.next () Int)
(declare-fun call_moesi.ite21 () Int)
(declare-fun call_moesi.ite29.next () Int)
(declare-fun call_moesi.ite.next () Int)
(declare-fun call_moesi.ite33.next () Int)
(declare-fun call_moesi.ite20 () Int)
(declare-fun call_moesi.ite9 () Int)
(declare-fun call_moesi.ite10.next () Int)
(declare-fun call_moesi.ite6 () Int)
(declare-fun call_moesi.ite29 () Int)
(declare-fun shared_mo () Int)
(declare-fun call_moesi.garde_mo1.next () Bool)
(declare-fun call_moesi.ite32 () Int)
(declare-fun call_moesi.owned_mo () Int)
(declare-fun call_moesi.ite3.next () Int)
(declare-fun call_moesi.invalid_mo.next () Int)
(declare-fun call_moesi.garde_mo2.next () Bool)
(declare-fun call_moesi.garde_mo3.next () Bool)
(declare-fun call_moesi.flby4 () Int)
(declare-fun call_moesi.ite6.next () Int)
(declare-fun call_moesi.ite17.next () Int)
(declare-fun call_moesi.ite5.next () Int)
(declare-fun call_moesi.ite26 () Int)
(declare-fun call_moesi.flby () Bool)
(declare-fun call_moesi.flby6.next () Int)
(declare-fun call_Sofar.flby () Bool)
(declare-fun _OK_.next () Bool)
(declare-fun call_Sofar.Sofar () Bool)
(declare-fun call_moesi.ite5 () Int)
(declare-fun call_moesi.ite8 () Int)
(declare-fun param_etat_mo4.next () Bool)
(declare-fun call_moesi.flby3.next () Int)
(declare-fun call_moesi.ite2.next () Int)
(declare-fun call_moesi.ite19.next () Int)
(declare-fun call_moesi.ite24.next () Int)
(declare-fun call_moesi.ite18.next () Int)
(declare-fun call_moesi.flby6 () Int)
(declare-fun call_moesi.modified_mo () Int)
(declare-fun call_moesi.garde_mo4.next () Bool)
(declare-fun call_moesi.ite22.next () Int)
(declare-fun _OK_ () Bool)
(declare-fun call_moesi.ite9.next () Int)
(declare-fun call_moesi.ite27 () Int)
(declare-fun call_moesi.ite34 () Int)
(declare-fun call_excludes4.excludes () Bool)
(declare-fun call_moesi.invalid_mo () Int)
(declare-fun call_moesi.ite14 () Int)
(declare-fun param_etat_mo4 () Bool)
(declare-fun call_excludes4.excludes.next () Bool)
(declare-fun call_moesi.ite22 () Int)
(declare-fun call_moesi.flby4.next () Int)
(declare-fun call_moesi.ite27.next () Int)
(declare-fun call_moesi.flby5.next () Int)
(declare-fun call_moesi.ite13.next () Int)
(declare-fun param_etat_mo2 () Bool)
(declare-fun call_moesi.ite31.next () Int)
(declare-fun erreur_mo () Bool)
(declare-fun call_moesi.flby2.next () Int)
(declare-fun call_moesi.shared_mo.next () Int)
(declare-fun call_moesi.flby.next () Bool)
(declare-fun call_moesi.ite14.next () Int)
(declare-fun call_moesi.flby2 () Int)
(declare-fun call_moesi.ite11.next () Int)
(declare-fun erreur_mo.next () Bool)
(declare-fun param_etat_mo1.next () Bool)
(declare-fun call_moesi.ite23 () Int)
(declare-fun param_etat_mo2.next () Bool)
(declare-fun call_moesi.ite32.next () Int)
(declare-fun owned_mo () Int)
(declare-fun env () Bool)
(declare-fun shared_mo.next () Int)
(define-fun .def_1348 () Bool (= call_Sofar.flby.next call_Sofar.Sofar.next))
(define-fun .def_1343 () Bool (and param_etat_mo4.next param_etat_mo3.next))
(define-fun .def_1341 () Bool (and param_etat_mo4.next param_etat_mo2.next))
(define-fun .def_1339 () Bool (and param_etat_mo2.next param_etat_mo3.next))
(define-fun .def_1337 () Bool (and param_etat_mo4.next param_etat_mo1.next))
(define-fun .def_1335 () Bool (and param_etat_mo1.next param_etat_mo3.next))
(define-fun .def_1334 () Bool (and param_etat_mo2.next param_etat_mo1.next))
(define-fun .def_1336 () Bool (or .def_1334 .def_1335))
(define-fun .def_1338 () Bool (or .def_1336 .def_1337))
(define-fun .def_1340 () Bool (or .def_1338 .def_1339))
(define-fun .def_1342 () Bool (or .def_1340 .def_1341))
(define-fun .def_1344 () Bool (or .def_1342 .def_1343))
(define-fun .def_1345 () Bool (not .def_1344))
(define-fun .def_1346 () Bool (= call_excludes4.excludes.next .def_1345))
(define-fun .def_1332 () Bool (= call_moesi.flby.next call_moesi.erreur_mo.next))
(define-fun .def_1330 () Bool (= call_moesi.flby6.next call_moesi.owned_mo.next))
(define-fun .def_1328 () Bool (= call_moesi.flby5.next call_moesi.invalid_mo.next))
(define-fun .def_1326 () Bool (= call_moesi.flby4.next call_moesi.shared_mo.next))
(define-fun .def_1324 () Bool (= call_moesi.exclusive_mo.next call_moesi.flby3.next))
(define-fun .def_1322 () Bool (= call_moesi.flby2.next call_moesi.modified_mo.next))
(define-fun .def_1320 () Bool (= env.next call_Sofar.Sofar.next))
(define-fun .def_1317 () Bool (= erreur_mo.next call_moesi.erreur_mo.next))
(define-fun .def_1313 () Bool (= owned_mo.next call_moesi.owned_mo.next))
(define-fun .def_1310 () Bool (= invalid_mo.next call_moesi.invalid_mo.next))
(define-fun .def_1307 () Bool (= shared_mo.next call_moesi.shared_mo.next))
(define-fun .def_1304 () Bool (= exclusive_mo.next call_moesi.exclusive_mo.next))
(define-fun .def_1302 () Bool (= modified_mo.next call_moesi.modified_mo.next))
(define-fun .def_1297 () Bool (not env.next))
(define-fun .def_1298 () Bool (or flby.next .def_1297))
(define-fun .def_1299 () Bool (= _OK_.next .def_1298))
(define-fun .def_1291 () Bool (= call_moesi.ite32.next call_moesi.ite33.next))
(define-fun .def_1292 () Bool (or param_etat_mo3.next .def_1291))
(define-fun .def_1288 () Bool (= call_moesi.ite30.next call_moesi.ite33.next))
(define-fun .def_1267 () Bool (not param_etat_mo3.next))
(define-fun .def_1289 () Bool (or .def_1267 .def_1288))
(define-fun .def_1285 () Bool (= call_moesi.ite26.next call_moesi.ite27.next))
(define-fun .def_1286 () Bool (or param_etat_mo3.next .def_1285))
(define-fun .def_1282 () Bool (= call_moesi.ite24.next call_moesi.ite27.next))
(define-fun .def_1283 () Bool (or .def_1267 .def_1282))
(define-fun .def_1279 () Bool (= call_moesi.ite20.next call_moesi.ite21.next))
(define-fun .def_1280 () Bool (or param_etat_mo3.next .def_1279))
(define-fun .def_1276 () Bool (= call_moesi.ite18.next call_moesi.ite21.next))
(define-fun .def_1277 () Bool (or .def_1267 .def_1276))
(define-fun .def_1273 () Bool (= call_moesi.ite13.next call_moesi.ite14.next))
(define-fun .def_1274 () Bool (or param_etat_mo3.next .def_1273))
(define-fun .def_1270 () Bool (= call_moesi.ite11.next call_moesi.ite14.next))
(define-fun .def_1271 () Bool (or .def_1267 .def_1270))
(define-fun .def_1266 () Bool (= call_moesi.ite3.next call_moesi.ite6.next))
(define-fun .def_1268 () Bool (or .def_1266 .def_1267))
(define-fun .def_1263 () Bool (= call_moesi.ite5.next call_moesi.ite6.next))
(define-fun .def_1265 () Bool (or .def_1263 param_etat_mo3.next))
(define-fun .def_1269 () Bool (and .def_1265 .def_1268))
(define-fun .def_1272 () Bool (and .def_1269 .def_1271))
(define-fun .def_1275 () Bool (and .def_1272 .def_1274))
(define-fun .def_1278 () Bool (and .def_1275 .def_1277))
(define-fun .def_1281 () Bool (and .def_1278 .def_1280))
(define-fun .def_1284 () Bool (and .def_1281 .def_1283))
(define-fun .def_1287 () Bool (and .def_1284 .def_1286))
(define-fun .def_1290 () Bool (and .def_1287 .def_1289))
(define-fun .def_1293 () Bool (and .def_1290 .def_1292))
(define-fun .def_1259 () Bool (= call_moesi.ite34.next call_moesi.ite33.next))
(define-fun .def_1260 () Bool (or param_etat_mo1.next .def_1259))
(define-fun .def_1255 () Bool (= call_moesi.ite29.next call_moesi.ite34.next))
(define-fun .def_1232 () Bool (not param_etat_mo1.next))
(define-fun .def_1256 () Bool (or .def_1232 .def_1255))
(define-fun .def_1252 () Bool (= call_moesi.ite28.next call_moesi.ite27.next))
(define-fun .def_1253 () Bool (or param_etat_mo1.next .def_1252))
(define-fun .def_1248 () Bool (= call_moesi.ite23.next call_moesi.ite28.next))
(define-fun .def_1249 () Bool (or .def_1232 .def_1248))
(define-fun .def_1245 () Bool (= call_moesi.ite22.next call_moesi.ite21.next))
(define-fun .def_1246 () Bool (or param_etat_mo1.next .def_1245))
(define-fun .def_1241 () Bool (= call_moesi.ite17.next call_moesi.ite22.next))
(define-fun .def_1242 () Bool (or .def_1232 .def_1241))
(define-fun .def_1238 () Bool (= call_moesi.ite16.next call_moesi.ite15.next))
(define-fun .def_1239 () Bool (or param_etat_mo1.next .def_1238))
(define-fun .def_1235 () Bool (= call_moesi.ite9.next call_moesi.ite16.next))
(define-fun .def_1236 () Bool (or .def_1232 .def_1235))
(define-fun .def_1231 () Bool (= call_moesi.ite.next call_moesi.ite8.next))
(define-fun .def_1233 () Bool (or .def_1231 .def_1232))
(define-fun .def_1228 () Bool (= call_moesi.ite8.next call_moesi.ite7.next))
(define-fun .def_1230 () Bool (or .def_1228 param_etat_mo1.next))
(define-fun .def_1234 () Bool (and .def_1230 .def_1233))
(define-fun .def_1237 () Bool (and .def_1234 .def_1236))
(define-fun .def_1240 () Bool (and .def_1237 .def_1239))
(define-fun .def_1243 () Bool (and .def_1240 .def_1242))
(define-fun .def_1247 () Bool (and .def_1243 .def_1246))
(define-fun .def_1250 () Bool (and .def_1247 .def_1249))
(define-fun .def_1254 () Bool (and .def_1250 .def_1253))
(define-fun .def_1257 () Bool (and .def_1254 .def_1256))
(define-fun .def_1261 () Bool (and .def_1257 .def_1260))
(define-fun .def_1225 () Bool (= call_moesi.ite15.next call_moesi.ite14.next))
(define-fun .def_1226 () Bool (or param_etat_mo2.next .def_1225))
(define-fun .def_1221 () Bool (= call_moesi.ite10.next call_moesi.ite15.next))
(define-fun .def_1217 () Bool (not param_etat_mo2.next))
(define-fun .def_1222 () Bool (or .def_1217 .def_1221))
(define-fun .def_1216 () Bool (= call_moesi.ite2.next call_moesi.ite7.next))
(define-fun .def_1218 () Bool (or .def_1216 .def_1217))
(define-fun .def_1213 () Bool (= call_moesi.ite7.next call_moesi.ite6.next))
(define-fun .def_1215 () Bool (or .def_1213 param_etat_mo2.next))
(define-fun .def_1219 () Bool (and .def_1215 .def_1218))
(define-fun .def_1223 () Bool (and .def_1219 .def_1222))
(define-fun .def_1227 () Bool (and .def_1223 .def_1226))
(define-fun .def_1262 () Bool (and .def_1227 .def_1261))
(define-fun .def_1294 () Bool (and .def_1262 .def_1293))
(define-fun .def_1300 () Bool (and .def_1294 .def_1299))
(define-fun .def_1303 () Bool (and .def_1300 .def_1302))
(define-fun .def_1305 () Bool (and .def_1303 .def_1304))
(define-fun .def_1308 () Bool (and .def_1305 .def_1307))
(define-fun .def_1311 () Bool (and .def_1308 .def_1310))
(define-fun .def_1314 () Bool (and .def_1311 .def_1313))
(define-fun .def_1318 () Bool (and .def_1314 .def_1317))
(define-fun .def_1321 () Bool (and .def_1318 .def_1320))
(define-fun .def_1323 () Bool (and .def_1321 .def_1322))
(define-fun .def_1325 () Bool (and .def_1323 .def_1324))
(define-fun .def_1327 () Bool (and .def_1325 .def_1326))
(define-fun .def_1329 () Bool (and .def_1327 .def_1328))
(define-fun .def_1331 () Bool (and .def_1329 .def_1330))
(define-fun .def_1333 () Bool (and .def_1331 .def_1332))
(define-fun .def_1347 () Bool (and .def_1333 .def_1346))
(define-fun .def_1349 () Bool (and .def_1347 .def_1348))
(define-fun .def_930 () Bool (= call_Sofar.flby call_Sofar.Sofar))
(define-fun .def_925 () Bool (and param_etat_mo4 param_etat_mo3))
(define-fun .def_923 () Bool (and param_etat_mo4 param_etat_mo2))
(define-fun .def_921 () Bool (and param_etat_mo2 param_etat_mo3))
(define-fun .def_919 () Bool (and param_etat_mo4 param_etat_mo1))
(define-fun .def_917 () Bool (and param_etat_mo1 param_etat_mo3))
(define-fun .def_916 () Bool (and param_etat_mo2 param_etat_mo1))
(define-fun .def_918 () Bool (or .def_916 .def_917))
(define-fun .def_920 () Bool (or .def_918 .def_919))
(define-fun .def_922 () Bool (or .def_920 .def_921))
(define-fun .def_924 () Bool (or .def_922 .def_923))
(define-fun .def_926 () Bool (or .def_924 .def_925))
(define-fun .def_927 () Bool (not .def_926))
(define-fun .def_928 () Bool (= call_excludes4.excludes .def_927))
(define-fun .def_914 () Bool (= call_moesi.flby call_moesi.erreur_mo))
(define-fun .def_912 () Bool (= call_moesi.flby6 call_moesi.owned_mo))
(define-fun .def_910 () Bool (= call_moesi.flby5 call_moesi.invalid_mo))
(define-fun .def_908 () Bool (= call_moesi.flby4 call_moesi.shared_mo))
(define-fun .def_906 () Bool (= call_moesi.flby3 call_moesi.exclusive_mo))
(define-fun .def_904 () Bool (= call_moesi.flby2 call_moesi.modified_mo))
(define-fun .def_902 () Bool (= env call_Sofar.Sofar))
(define-fun .def_899 () Bool (= erreur_mo call_moesi.erreur_mo))
(define-fun .def_895 () Bool (= owned_mo call_moesi.owned_mo))
(define-fun .def_891 () Bool (= invalid_mo call_moesi.invalid_mo))
(define-fun .def_887 () Bool (= shared_mo call_moesi.shared_mo))
(define-fun .def_883 () Bool (= exclusive_mo call_moesi.exclusive_mo))
(define-fun .def_879 () Bool (= modified_mo call_moesi.modified_mo))
(define-fun .def_873 () Bool (not env))
(define-fun .def_874 () Bool (or flby .def_873))
(define-fun .def_875 () Bool (= _OK_ .def_874))
(define-fun .def_867 () Bool (= call_moesi.ite32 call_moesi.ite33))
(define-fun .def_868 () Bool (or param_etat_mo3 .def_867))
(define-fun .def_864 () Bool (= call_moesi.ite30 call_moesi.ite33))
(define-fun .def_842 () Bool (not param_etat_mo3))
(define-fun .def_865 () Bool (or .def_842 .def_864))
(define-fun .def_861 () Bool (= call_moesi.ite26 call_moesi.ite27))
(define-fun .def_862 () Bool (or param_etat_mo3 .def_861))
(define-fun .def_858 () Bool (= call_moesi.ite27 call_moesi.ite24))
(define-fun .def_859 () Bool (or .def_842 .def_858))
(define-fun .def_854 () Bool (= call_moesi.ite20 call_moesi.ite21))
(define-fun .def_855 () Bool (or param_etat_mo3 .def_854))
(define-fun .def_851 () Bool (= call_moesi.ite18 call_moesi.ite21))
(define-fun .def_852 () Bool (or .def_842 .def_851))
(define-fun .def_848 () Bool (= call_moesi.ite13 call_moesi.ite14))
(define-fun .def_849 () Bool (or param_etat_mo3 .def_848))
(define-fun .def_845 () Bool (= call_moesi.ite11 call_moesi.ite14))
(define-fun .def_846 () Bool (or .def_842 .def_845))
(define-fun .def_841 () Bool (= call_moesi.ite3 call_moesi.ite6))
(define-fun .def_843 () Bool (or .def_841 .def_842))
(define-fun .def_838 () Bool (= call_moesi.ite5 call_moesi.ite6))
(define-fun .def_840 () Bool (or .def_838 param_etat_mo3))
(define-fun .def_844 () Bool (and .def_840 .def_843))
(define-fun .def_847 () Bool (and .def_844 .def_846))
(define-fun .def_850 () Bool (and .def_847 .def_849))
(define-fun .def_853 () Bool (and .def_850 .def_852))
(define-fun .def_856 () Bool (and .def_853 .def_855))
(define-fun .def_860 () Bool (and .def_856 .def_859))
(define-fun .def_863 () Bool (and .def_860 .def_862))
(define-fun .def_866 () Bool (and .def_863 .def_865))
(define-fun .def_869 () Bool (and .def_866 .def_868))
(define-fun .def_834 () Bool (= call_moesi.ite34 call_moesi.ite33))
(define-fun .def_835 () Bool (or param_etat_mo1 .def_834))
(define-fun .def_830 () Bool (= call_moesi.ite29 call_moesi.ite34))
(define-fun .def_800 () Bool (not param_etat_mo1))
(define-fun .def_831 () Bool (or .def_800 .def_830))
(define-fun .def_825 () Bool (= call_moesi.ite28 call_moesi.ite27))
(define-fun .def_826 () Bool (or param_etat_mo1 .def_825))
(define-fun .def_821 () Bool (= call_moesi.ite23 call_moesi.ite28))
(define-fun .def_822 () Bool (or .def_800 .def_821))
(define-fun .def_816 () Bool (= call_moesi.ite22 call_moesi.ite21))
(define-fun .def_817 () Bool (or param_etat_mo1 .def_816))
(define-fun .def_812 () Bool (= call_moesi.ite17 call_moesi.ite22))
(define-fun .def_813 () Bool (or .def_800 .def_812))
(define-fun .def_807 () Bool (= call_moesi.ite15 call_moesi.ite16))
(define-fun .def_808 () Bool (or param_etat_mo1 .def_807))
(define-fun .def_804 () Bool (= call_moesi.ite9 call_moesi.ite16))
(define-fun .def_805 () Bool (or .def_800 .def_804))
(define-fun .def_799 () Bool (= call_moesi.ite call_moesi.ite8))
(define-fun .def_801 () Bool (or .def_799 .def_800))
(define-fun .def_796 () Bool (= call_moesi.ite7 call_moesi.ite8))
(define-fun .def_798 () Bool (or .def_796 param_etat_mo1))
(define-fun .def_802 () Bool (and .def_798 .def_801))
(define-fun .def_806 () Bool (and .def_802 .def_805))
(define-fun .def_809 () Bool (and .def_806 .def_808))
(define-fun .def_814 () Bool (and .def_809 .def_813))
(define-fun .def_818 () Bool (and .def_814 .def_817))
(define-fun .def_823 () Bool (and .def_818 .def_822))
(define-fun .def_827 () Bool (and .def_823 .def_826))
(define-fun .def_832 () Bool (and .def_827 .def_831))
(define-fun .def_836 () Bool (and .def_832 .def_835))
(define-fun .def_792 () Bool (= call_moesi.ite15 call_moesi.ite14))
(define-fun .def_793 () Bool (or param_etat_mo2 .def_792))
(define-fun .def_788 () Bool (= call_moesi.ite10 call_moesi.ite15))
(define-fun .def_783 () Bool (not param_etat_mo2))
(define-fun .def_789 () Bool (or .def_783 .def_788))
(define-fun .def_782 () Bool (= call_moesi.ite7 call_moesi.ite2))
(define-fun .def_784 () Bool (or .def_782 .def_783))
(define-fun .def_778 () Bool (= call_moesi.ite7 call_moesi.ite6))
(define-fun .def_780 () Bool (or .def_778 param_etat_mo2))
(define-fun .def_785 () Bool (and .def_780 .def_784))
(define-fun .def_790 () Bool (and .def_785 .def_789))
(define-fun .def_794 () Bool (and .def_790 .def_793))
(define-fun .def_837 () Bool (and .def_794 .def_836))
(define-fun .def_870 () Bool (and .def_837 .def_869))
(define-fun .def_876 () Bool (and .def_870 .def_875))
(define-fun .def_880 () Bool (and .def_876 .def_879))
(define-fun .def_884 () Bool (and .def_880 .def_883))
(define-fun .def_888 () Bool (and .def_884 .def_887))
(define-fun .def_892 () Bool (and .def_888 .def_891))
(define-fun .def_896 () Bool (and .def_892 .def_895))
(define-fun .def_900 () Bool (and .def_896 .def_899))
(define-fun .def_903 () Bool (and .def_900 .def_902))
(define-fun .def_905 () Bool (and .def_903 .def_904))
(define-fun .def_907 () Bool (and .def_905 .def_906))
(define-fun .def_909 () Bool (and .def_907 .def_908))
(define-fun .def_911 () Bool (and .def_909 .def_910))
(define-fun .def_913 () Bool (and .def_911 .def_912))
(define-fun .def_915 () Bool (and .def_913 .def_914))
(define-fun .def_929 () Bool (and .def_915 .def_928))
(define-fun .def_931 () Bool (and .def_929 .def_930))
(define-fun .def_1350 () Bool (and .def_931 .def_1349))
(define-fun .def_1207 () Bool (and call_Sofar.Sofar call_excludes4.excludes.next))
(define-fun .def_1209 () Bool (= .def_1207 call_Sofar.flby.next))
(define-fun .def_1204 () Bool (= call_moesi.ite34.next call_moesi.flby6.next))
(define-fun .def_1200 () Bool (= call_moesi.ite28.next call_moesi.flby5.next))
(define-fun .def_1196 () Bool (= call_moesi.ite22.next call_moesi.flby4.next))
(define-fun .def_1192 () Bool (= call_moesi.ite16.next call_moesi.flby3.next))
(define-fun .def_1188 () Bool (= call_moesi.ite8.next call_moesi.flby2.next))
(define-fun .def_1182 () Bool (<= 2 call_moesi.exclusive_mo.next))
(define-fun .def_1184 () Bool (= .def_1182 call_moesi.flby.next))
(define-fun .def_1141 () Bool (<= 1 call_moesi.invalid_mo))
(define-fun .def_1178 () Bool (= call_moesi.garde_mo4.next .def_1141))
(define-fun .def_1175 () Bool (= call_moesi.ite31.next 0))
(define-fun .def_1058 () Bool (not call_moesi.garde_mo4.next))
(define-fun .def_1176 () Bool (or .def_1058 .def_1175))
(define-fun .def_1172 () Bool (= call_moesi.ite19.next 0))
(define-fun .def_1173 () Bool (or .def_1058 .def_1172))
(define-fun .def_1169 () Bool (= call_moesi.ite4.next 0))
(define-fun .def_1170 () Bool (or .def_1058 .def_1169))
(define-fun .def_1167 () Bool (= call_moesi.ite12.next 1))
(define-fun .def_1168 () Bool (or .def_1058 .def_1167))
(define-fun .def_1171 () Bool (and .def_1168 .def_1170))
(define-fun .def_1174 () Bool (and .def_1171 .def_1173))
(define-fun .def_1177 () Bool (and .def_1174 .def_1176))
(define-fun .def_1179 () Bool (and .def_1177 .def_1178))
(define-fun .def_1161 () Int (* (- 1) call_moesi.owned_mo))
(define-fun .def_1162 () Int (+ call_moesi.shared_mo .def_1161))
(define-fun .def_1163 () Bool (<= 2 .def_1162))
(define-fun .def_1164 () Bool (= call_moesi.garde_mo3.next .def_1163))
(define-fun .def_1156 () Bool (= call_moesi.ite30.next 0))
(define-fun .def_1043 () Bool (not call_moesi.garde_mo3.next))
(define-fun .def_1157 () Bool (or .def_1043 .def_1156))
(define-fun .def_1153 () Bool (= call_moesi.ite18.next 0))
(define-fun .def_1154 () Bool (or .def_1043 .def_1153))
(define-fun .def_1150 () Bool (= call_moesi.ite3.next 0))
(define-fun .def_1151 () Bool (or .def_1043 .def_1150))
(define-fun .def_1148 () Bool (= call_moesi.ite11.next 1))
(define-fun .def_1149 () Bool (or .def_1043 .def_1148))
(define-fun .def_1152 () Bool (and .def_1149 .def_1151))
(define-fun .def_1155 () Bool (and .def_1152 .def_1154))
(define-fun .def_1158 () Bool (and .def_1155 .def_1157))
(define-fun .def_1165 () Bool (and .def_1158 .def_1164))
(define-fun .def_1145 () Bool (<= 1 call_moesi.exclusive_mo))
(define-fun .def_1146 () Bool (= call_moesi.garde_mo2.next .def_1145))
(define-fun .def_1142 () Bool (= call_moesi.garde_mo1.next .def_1141))
(define-fun .def_1138 () Bool (= call_moesi.ite.next 0))
(define-fun .def_1068 () Bool (not call_moesi.garde_mo1.next))
(define-fun .def_1139 () Bool (or .def_1068 .def_1138))
(define-fun .def_1136 () Bool (= call_moesi.ite9.next 0))
(define-fun .def_1137 () Bool (or .def_1068 .def_1136))
(define-fun .def_1140 () Bool (and .def_1137 .def_1139))
(define-fun .def_1143 () Bool (and .def_1140 .def_1142))
(define-fun .def_1132 () Bool (= call_moesi.owned_mo call_moesi.ite31.next))
(define-fun .def_1133 () Bool (or call_moesi.garde_mo4.next .def_1132))
(define-fun .def_1129 () Bool (= call_moesi.owned_mo call_moesi.ite29.next))
(define-fun .def_1130 () Bool (or call_moesi.garde_mo1.next .def_1129))
(define-fun .def_1127 () Bool (= call_moesi.owned_mo call_moesi.ite30.next))
(define-fun .def_1128 () Bool (or call_moesi.garde_mo3.next .def_1127))
(define-fun .def_1131 () Bool (and .def_1128 .def_1130))
(define-fun .def_1134 () Bool (and .def_1131 .def_1133))
(define-fun .def_1122 () Bool (= call_moesi.invalid_mo call_moesi.ite25.next))
(define-fun .def_1123 () Bool (or call_moesi.garde_mo4.next .def_1122))
(define-fun .def_1119 () Bool (= call_moesi.invalid_mo call_moesi.ite24.next))
(define-fun .def_1120 () Bool (or call_moesi.garde_mo3.next .def_1119))
(define-fun .def_1114 () Int (* (- 1) call_moesi.ite23.next))
(define-fun .def_1115 () Int (+ call_moesi.invalid_mo .def_1114))
(define-fun .def_1116 () Bool (= .def_1115 1))
(define-fun .def_1117 () Bool (or .def_1068 .def_1116))
(define-fun .def_1112 () Bool (= call_moesi.invalid_mo call_moesi.ite23.next))
(define-fun .def_1113 () Bool (or call_moesi.garde_mo1.next .def_1112))
(define-fun .def_1118 () Bool (and .def_1113 .def_1117))
(define-fun .def_1121 () Bool (and .def_1118 .def_1120))
(define-fun .def_1124 () Bool (and .def_1121 .def_1123))
(define-fun .def_1107 () Bool (= call_moesi.shared_mo call_moesi.ite19.next))
(define-fun .def_1108 () Bool (or call_moesi.garde_mo4.next .def_1107))
(define-fun .def_1104 () Bool (= call_moesi.shared_mo call_moesi.ite17.next))
(define-fun .def_1105 () Bool (or call_moesi.garde_mo1.next .def_1104))
(define-fun .def_1102 () Bool (= call_moesi.shared_mo call_moesi.ite18.next))
(define-fun .def_1103 () Bool (or call_moesi.garde_mo3.next .def_1102))
(define-fun .def_1106 () Bool (and .def_1103 .def_1105))
(define-fun .def_1109 () Bool (and .def_1106 .def_1108))
(define-fun .def_1092 () Int (* (- 1) call_moesi.ite17.next))
(define-fun .def_1095 () Int (+ call_moesi.shared_mo .def_1092))
(define-fun .def_1096 () Int (+ call_moesi.exclusive_mo .def_1095))
(define-fun .def_1097 () Bool (= .def_1096 (- 1)))
(define-fun .def_1098 () Bool (or .def_1068 .def_1097))
(define-fun .def_1088 () Bool (= call_moesi.exclusive_mo call_moesi.ite12.next))
(define-fun .def_1089 () Bool (or call_moesi.garde_mo4.next .def_1088))
(define-fun .def_1085 () Bool (= call_moesi.exclusive_mo call_moesi.ite11.next))
(define-fun .def_1086 () Bool (or call_moesi.garde_mo3.next .def_1085))
(define-fun .def_1081 () Bool (= call_moesi.exclusive_mo call_moesi.ite10.next))
(define-fun .def_1082 () Bool (or call_moesi.garde_mo2.next .def_1081))
(define-fun .def_1078 () Bool (= call_moesi.exclusive_mo call_moesi.ite9.next))
(define-fun .def_1079 () Bool (or call_moesi.garde_mo1.next .def_1078))
(define-fun .def_1073 () Int (* (- 1) call_moesi.ite10.next))
(define-fun .def_1074 () Int (+ call_moesi.exclusive_mo .def_1073))
(define-fun .def_1075 () Bool (= .def_1074 1))
(define-fun .def_1011 () Bool (not call_moesi.garde_mo2.next))
(define-fun .def_1076 () Bool (or .def_1011 .def_1075))
(define-fun .def_1080 () Bool (and .def_1076 .def_1079))
(define-fun .def_1083 () Bool (and .def_1080 .def_1082))
(define-fun .def_1087 () Bool (and .def_1083 .def_1086))
(define-fun .def_1090 () Bool (and .def_1087 .def_1089))
(define-fun .def_1099 () Bool (and .def_1090 .def_1098))
(define-fun .def_1062 () Int (* (- 1) call_moesi.ite29.next))
(define-fun .def_1065 () Int (+ call_moesi.owned_mo .def_1062))
(define-fun .def_1066 () Int (+ call_moesi.modified_mo .def_1065))
(define-fun .def_1067 () Bool (= .def_1066 0))
(define-fun .def_1069 () Bool (or .def_1067 .def_1068))
(define-fun .def_1046 () Int (* (- 1) call_moesi.ite25.next))
(define-fun .def_1052 () Int (+ call_moesi.owned_mo .def_1046))
(define-fun .def_1053 () Int (+ call_moesi.invalid_mo .def_1052))
(define-fun .def_1054 () Int (+ call_moesi.shared_mo .def_1053))
(define-fun .def_1055 () Int (+ call_moesi.exclusive_mo .def_1054))
(define-fun .def_1056 () Int (+ call_moesi.modified_mo .def_1055))
(define-fun .def_1057 () Bool (= .def_1056 1))
(define-fun .def_1059 () Bool (or .def_1057 .def_1058))
(define-fun .def_1031 () Int (* (- 1) call_moesi.ite24.next))
(define-fun .def_1037 () Int (+ call_moesi.owned_mo .def_1031))
(define-fun .def_1038 () Int (+ call_moesi.invalid_mo .def_1037))
(define-fun .def_1039 () Int (+ call_moesi.shared_mo .def_1038))
(define-fun .def_1040 () Int (+ call_moesi.exclusive_mo .def_1039))
(define-fun .def_1041 () Int (+ call_moesi.modified_mo .def_1040))
(define-fun .def_1042 () Bool (= .def_1041 1))
(define-fun .def_1044 () Bool (or .def_1042 .def_1043))
(define-fun .def_1026 () Bool (= call_moesi.modified_mo call_moesi.ite4.next))
(define-fun .def_1028 () Bool (or .def_1026 call_moesi.garde_mo4.next))
(define-fun .def_1022 () Bool (= call_moesi.modified_mo call_moesi.ite3.next))
(define-fun .def_1024 () Bool (or .def_1022 call_moesi.garde_mo3.next))
(define-fun .def_1018 () Bool (= call_moesi.modified_mo call_moesi.ite2.next))
(define-fun .def_1019 () Bool (or call_moesi.garde_mo2.next .def_1018))
(define-fun .def_1014 () Bool (= call_moesi.modified_mo call_moesi.ite.next))
(define-fun .def_1016 () Bool (or .def_1014 call_moesi.garde_mo1.next))
(define-fun .def_1007 () Int (* (- 1) call_moesi.ite2.next))
(define-fun .def_1008 () Int (+ call_moesi.modified_mo .def_1007))
(define-fun .def_1009 () Bool (= .def_1008 (- 1)))
(define-fun .def_1012 () Bool (or .def_1009 .def_1011))
(define-fun .def_1017 () Bool (and .def_1012 .def_1016))
(define-fun .def_1020 () Bool (and .def_1017 .def_1019))
(define-fun .def_1025 () Bool (and .def_1020 .def_1024))
(define-fun .def_1029 () Bool (and .def_1025 .def_1028))
(define-fun .def_1045 () Bool (and .def_1029 .def_1044))
(define-fun .def_1060 () Bool (and .def_1045 .def_1059))
(define-fun .def_1070 () Bool (and .def_1060 .def_1069))
(define-fun .def_1002 () Bool (= call_moesi.owned_mo call_moesi.ite32.next))
(define-fun .def_1003 () Bool (or param_etat_mo4.next .def_1002))
(define-fun .def_999 () Bool (= call_moesi.ite31.next call_moesi.ite32.next))
(define-fun .def_970 () Bool (not param_etat_mo4.next))
(define-fun .def_1000 () Bool (or .def_970 .def_999))
(define-fun .def_994 () Bool (= call_moesi.invalid_mo call_moesi.ite26.next))
(define-fun .def_995 () Bool (or param_etat_mo4.next .def_994))
(define-fun .def_991 () Bool (= call_moesi.ite25.next call_moesi.ite26.next))
(define-fun .def_992 () Bool (or .def_970 .def_991))
(define-fun .def_986 () Bool (= call_moesi.shared_mo call_moesi.ite20.next))
(define-fun .def_987 () Bool (or param_etat_mo4.next .def_986))
(define-fun .def_983 () Bool (= call_moesi.ite19.next call_moesi.ite20.next))
(define-fun .def_984 () Bool (or .def_970 .def_983))
(define-fun .def_978 () Bool (= call_moesi.exclusive_mo call_moesi.ite13.next))
(define-fun .def_979 () Bool (or param_etat_mo4.next .def_978))
(define-fun .def_975 () Bool (= call_moesi.ite12.next call_moesi.ite13.next))
(define-fun .def_976 () Bool (or .def_970 .def_975))
(define-fun .def_969 () Bool (= call_moesi.ite5.next call_moesi.ite4.next))
(define-fun .def_971 () Bool (or .def_969 .def_970))
(define-fun .def_965 () Bool (= call_moesi.modified_mo call_moesi.ite5.next))
(define-fun .def_967 () Bool (or .def_965 param_etat_mo4.next))
(define-fun .def_972 () Bool (and .def_967 .def_971))
(define-fun .def_977 () Bool (and .def_972 .def_976))
(define-fun .def_980 () Bool (and .def_977 .def_979))
(define-fun .def_985 () Bool (and .def_980 .def_984))
(define-fun .def_988 () Bool (and .def_985 .def_987))
(define-fun .def_993 () Bool (and .def_988 .def_992))
(define-fun .def_996 () Bool (and .def_993 .def_995))
(define-fun .def_1001 () Bool (and .def_996 .def_1000))
(define-fun .def_1004 () Bool (and .def_1001 .def_1003))
(define-fun .def_945 () Int (* (- 1) owned_mo.next))
(define-fun .def_942 () Int (* (- 1) invalid_mo.next))
(define-fun .def_952 () Int (+ .def_942 .def_945))
(define-fun .def_939 () Int (* (- 1) shared_mo.next))
(define-fun .def_953 () Int (+ .def_939 .def_952))
(define-fun .def_936 () Int (* (- 1) exclusive_mo.next))
(define-fun .def_954 () Int (+ .def_936 .def_953))
(define-fun .def_934 () Int (* (- 1) modified_mo.next))
(define-fun .def_955 () Int (+ .def_934 .def_954))
(define-fun .def_956 () Int (+ owned_mo .def_955))
(define-fun .def_957 () Int (+ invalid_mo .def_956))
(define-fun .def_958 () Int (+ shared_mo .def_957))
(define-fun .def_959 () Int (+ exclusive_mo .def_958))
(define-fun .def_960 () Int (+ modified_mo .def_959))
(define-fun .def_961 () Bool (= .def_960 0))
(define-fun .def_963 () Bool (= .def_961 flby.next))
(define-fun .def_1005 () Bool (and .def_963 .def_1004))
(define-fun .def_1071 () Bool (and .def_1005 .def_1070))
(define-fun .def_1100 () Bool (and .def_1071 .def_1099))
(define-fun .def_1110 () Bool (and .def_1100 .def_1109))
(define-fun .def_1125 () Bool (and .def_1110 .def_1124))
(define-fun .def_1135 () Bool (and .def_1125 .def_1134))
(define-fun .def_1144 () Bool (and .def_1135 .def_1143))
(define-fun .def_1147 () Bool (and .def_1144 .def_1146))
(define-fun .def_1166 () Bool (and .def_1147 .def_1165))
(define-fun .def_1180 () Bool (and .def_1166 .def_1179))
(define-fun .def_1185 () Bool (and .def_1180 .def_1184))
(define-fun .def_1189 () Bool (and .def_1185 .def_1188))
(define-fun .def_1193 () Bool (and .def_1189 .def_1192))
(define-fun .def_1197 () Bool (and .def_1193 .def_1196))
(define-fun .def_1201 () Bool (and .def_1197 .def_1200))
(define-fun .def_1205 () Bool (and .def_1201 .def_1204))
(define-fun .def_1210 () Bool (and .def_1205 .def_1209))
(define-fun .def_1351 () Bool (and .def_1210 .def_1350))
(assert .def_1351)
